LAMMPS (2 Aug 2023 - Development - patch_2Aug2023-219-g06e2d5d306)
# LAMMPS input file for Lennard-Jones simulation. Second stage: Lennard-Jones simulation
units lj
dimension 3
boundary p p p
atom_style sphere

# Read the initial configuration from a file
read_data random_initial_config_2_types.dat
Reading data file ...
  orthogonal box = (0 0 0) to (46.415888 46.415888 46.415888)
  2 by 2 by 2 MPI processor grid
  reading atoms ...
  1000 atoms
  reading velocities ...
  1000 velocities
  read_data CPU = 0.007 seconds

# Attribute a velocity to each atom
#velocity all create 1 83

# Define the potential
pair_style lj/cut 2.5
pair_modify shift yes
pair_coeff 1 1 10 1.0
pair_coeff 2 2 10 1.0
pair_coeff 1 2 100 2.0

# Define the integrator
fix 1 all nvt temp 1 1 1

# Define the timestep
timestep 0.001

# Define the output
thermo_style custom step time temp density
thermo 10000
restart 10000 lj.restart1 lj.restart2
dump 1 all custom 1000 traj_2_types.lammpstrj id type x y z #ix iy iz

# Run the simulation
run 10000000
Generated 0 of 1 mixed pair_coeff terms from geometric mixing rule
Neighbor list info ...
  update: every = 1 steps, delay = 0 steps, check = yes
  max neighbors/atom: 2000, page size: 100000
  master list distance cutoff = 2.8
  ghost atom cutoff = 2.8
  binsize = 1.4, bins = 34 34 34
  1 neighbor lists, perpetual/occasional/extra = 1 0 0
  (1) pair lj/cut, perpetual
      attributes: half, newton on
      pair build: half/bin/atomonly/newton
      stencil: half/bin/3d
      bin: standard
Per MPI rank memory allocation (min/avg/max) = 4.354 | 4.354 | 4.355 Mbytes
   Step          Time           Temp         Density    
         0   0              1.0227958      0.0052359878 
     10000   10             1.5673769      0.0052359878 
     20000   20             1.627209       0.0052359878 
     30000   30             1.0223558      0.0052359878 
     40000   40             0.98144092     0.0052359878 
     50000   50             0.95739309     0.0052359878 
     60000   60             1.0307534      0.0052359878 
     70000   70             1.0130629      0.0052359878 
     80000   80             0.90351915     0.0052359878 
     90000   90             1.0762841      0.0052359878 
    100000   100            0.92544443     0.0052359878 
    110000   110            0.96938458     0.0052359878 
    120000   120            1.0647526      0.0052359878 
    130000   130            0.96509967     0.0052359878 
    140000   140            0.94229235     0.0052359878 
    150000   150            0.87612924     0.0052359878 
    160000   160            1.0057565      0.0052359878 
    170000   170            1.0090817      0.0052359878 
    180000   180            1.1563957      0.0052359878 
    190000   190            0.97764258     0.0052359878 
    200000   200            1.0636156      0.0052359878 
    210000   210            1.0273824      0.0052359878 
    220000   220            0.97290073     0.0052359878 
    230000   230            1.0460717      0.0052359878 
    240000   240            1.0243183      0.0052359878 
    250000   250            1.0139429      0.0052359878 
    260000   260            1.0372612      0.0052359878 
    270000   270            1.0118455      0.0052359878 
    280000   280            1.015031       0.0052359878 
    290000   290            1.0476133      0.0052359878 
    300000   300            1.0053965      0.0052359878 
    310000   310            0.98156359     0.0052359878 
    320000   320            1.050935       0.0052359878 
    330000   330            1.0225427      0.0052359878 
    340000   340            0.96052091     0.0052359878 
    350000   350            1.0334768      0.0052359878 
    360000   360            0.9960466      0.0052359878 
    370000   370            1.0900778      0.0052359878 
    380000   380            1.0054595      0.0052359878 
    390000   390            1.0469664      0.0052359878 
    400000   400            0.97602062     0.0052359878 
    410000   410            0.98694796     0.0052359878 
    420000   420            0.93145221     0.0052359878 
    430000   430            1.0338562      0.0052359878 
    440000   440            1.065328       0.0052359878 
    450000   450            1.028399       0.0052359878 
    460000   460            0.92993554     0.0052359878 
    470000   470            1.024203       0.0052359878 
    480000   480            0.96764992     0.0052359878 
    490000   490            0.94153797     0.0052359878 
    500000   500            0.94973726     0.0052359878 
    510000   510            0.98256166     0.0052359878 
    520000   520            1.0079042      0.0052359878 
    530000   530            0.99188681     0.0052359878 
    540000   540            1.0005557      0.0052359878 
    550000   550            1.0508009      0.0052359878 
    560000   560            1.0260056      0.0052359878 
    570000   570            1.013645       0.0052359878 
    580000   580            0.96485245     0.0052359878 
    590000   590            1.0142258      0.0052359878 
    600000   600            0.99856741     0.0052359878 
    610000   610            0.97271546     0.0052359878 
    620000   620            0.99085275     0.0052359878 
    630000   630            0.97140848     0.0052359878 
    640000   640            1.0102501      0.0052359878 
    650000   650            1.0253174      0.0052359878 
    660000   660            0.9329136      0.0052359878 
    670000   670            0.98129105     0.0052359878 
    680000   680            1.0115965      0.0052359878 
    690000   690            1.0369925      0.0052359878 
    700000   700            1.0342875      0.0052359878 
    710000   710            0.94457651     0.0052359878 
    720000   720            1.0228431      0.0052359878 
    730000   730            1.0321534      0.0052359878 
    740000   740            1.0426971      0.0052359878 
    750000   750            0.98653921     0.0052359878 
    760000   760            0.98740278     0.0052359878 
    770000   770            1.0677593      0.0052359878 
    780000   780            1.0202984      0.0052359878 
    790000   790            1.0563646      0.0052359878 
    800000   800            0.94161442     0.0052359878 
    810000   810            0.98891267     0.0052359878 
    820000   820            0.94790766     0.0052359878 
    830000   830            1.0136197      0.0052359878 
    840000   840            0.99398201     0.0052359878 
    850000   850            0.97880797     0.0052359878 
    860000   860            0.96776597     0.0052359878 
    870000   870            0.98184389     0.0052359878 
    880000   880            1.0048687      0.0052359878 
    890000   890            0.95509563     0.0052359878 
    900000   900            1.0329482      0.0052359878 
    910000   910            0.98884323     0.0052359878 
    920000   920            1.0402027      0.0052359878 
    930000   930            0.99011542     0.0052359878 
    940000   940            1.001708       0.0052359878 
    950000   950            0.9897337      0.0052359878 
    960000   960            0.99438924     0.0052359878 
    970000   970            1.0327204      0.0052359878 
    980000   980            0.9954413      0.0052359878 
    990000   990            1.0274712      0.0052359878 
   1000000   1000           1.0117018      0.0052359878 
   1010000   1010           0.9412113      0.0052359878 
   1020000   1020           1.0513867      0.0052359878 
   1030000   1030           1.0278496      0.0052359878 
   1040000   1040           0.98245972     0.0052359878 
   1050000   1050           1.0010407      0.0052359878 
   1060000   1060           1.0082137      0.0052359878 
   1070000   1070           1.0114245      0.0052359878 
   1080000   1080           0.9634167      0.0052359878 
   1090000   1090           0.97159495     0.0052359878 
   1100000   1100           1.0187132      0.0052359878 
   1110000   1110           1.0440673      0.0052359878 
   1120000   1120           1.028249       0.0052359878 
   1130000   1130           0.99090633     0.0052359878 
   1140000   1140           0.97860637     0.0052359878 
   1150000   1150           0.98426606     0.0052359878 
   1160000   1160           1.0194185      0.0052359878 
   1170000   1170           0.94515905     0.0052359878 
   1180000   1180           0.98528691     0.0052359878 
   1190000   1190           1.0106221      0.0052359878 
   1200000   1200           0.97794484     0.0052359878 
   1210000   1210           1.0342871      0.0052359878 
   1220000   1220           1.0457306      0.0052359878 
   1230000   1230           1.0171914      0.0052359878 
   1240000   1240           1.0400577      0.0052359878 
   1250000   1250           1.0139318      0.0052359878 
   1260000   1260           1.0455743      0.0052359878 
   1270000   1270           0.98886889     0.0052359878 
   1280000   1280           0.98721276     0.0052359878 
   1290000   1290           1.0082496      0.0052359878 
   1300000   1300           0.9868574      0.0052359878 
   1310000   1310           1.0145022      0.0052359878 
   1320000   1320           1.0796883      0.0052359878 
   1330000   1330           1.012433       0.0052359878 
   1340000   1340           1.0383021      0.0052359878 
   1350000   1350           0.97252904     0.0052359878 
   1360000   1360           1.0197491      0.0052359878 
   1370000   1370           0.98788156     0.0052359878 
   1380000   1380           1.0268502      0.0052359878 
   1390000   1390           1.032969       0.0052359878 
   1400000   1400           0.96513944     0.0052359878 
   1410000   1410           1.0201952      0.0052359878 
   1420000   1420           0.97752626     0.0052359878 
   1430000   1430           1.0319095      0.0052359878 
   1440000   1440           0.99364605     0.0052359878 
   1450000   1450           0.96950347     0.0052359878 
   1460000   1460           0.97833649     0.0052359878 
   1470000   1470           1.024186       0.0052359878 
   1480000   1480           0.99959574     0.0052359878 
   1490000   1490           0.89407461     0.0052359878 
   1500000   1500           0.9607482      0.0052359878 
   1510000   1510           1.0583043      0.0052359878 
   1520000   1520           0.96852206     0.0052359878 
   1530000   1530           1.034531       0.0052359878 
   1540000   1540           1.0576766      0.0052359878 
   1550000   1550           1.0585031      0.0052359878 
   1560000   1560           0.931687       0.0052359878 
   1570000   1570           0.98706511     0.0052359878 
   1580000   1580           1.009507       0.0052359878 
   1590000   1590           0.97459677     0.0052359878 
   1600000   1600           0.99361188     0.0052359878 
   1610000   1610           1.0047094      0.0052359878 
   1620000   1620           0.99352692     0.0052359878 
   1630000   1630           1.0321144      0.0052359878 
   1640000   1640           0.99786524     0.0052359878 
   1650000   1650           0.97352932     0.0052359878 
   1660000   1660           0.97850473     0.0052359878 
   1670000   1670           1.019187       0.0052359878 
   1680000   1680           0.97217696     0.0052359878 
   1690000   1690           0.96229513     0.0052359878 
   1700000   1700           1.0131692      0.0052359878 
   1710000   1710           0.98065174     0.0052359878 
   1720000   1720           0.97321463     0.0052359878 
   1730000   1730           1.0063072      0.0052359878 
   1740000   1740           1.0696734      0.0052359878 
   1750000   1750           1.0989613      0.0052359878 
   1760000   1760           1.009435       0.0052359878 
   1770000   1770           1.0878723      0.0052359878 
   1780000   1780           1.0036317      0.0052359878 
   1790000   1790           0.97978038     0.0052359878 
   1800000   1800           0.98526087     0.0052359878 
   1810000   1810           1.0276129      0.0052359878 
   1820000   1820           0.98469914     0.0052359878 
   1830000   1830           0.9908577      0.0052359878 
   1840000   1840           0.97533813     0.0052359878 
   1850000   1850           0.95627427     0.0052359878 
   1860000   1860           0.95930578     0.0052359878 
   1870000   1870           0.97873264     0.0052359878 
   1880000   1880           1.070355       0.0052359878 
   1890000   1890           0.98454543     0.0052359878 
   1900000   1900           1.0136418      0.0052359878 
   1910000   1910           1.0729916      0.0052359878 
   1920000   1920           0.99708207     0.0052359878 
   1930000   1930           0.93551578     0.0052359878 
   1940000   1940           0.9906474      0.0052359878 
   1950000   1950           1.02473        0.0052359878 
   1960000   1960           1.0566703      0.0052359878 
   1970000   1970           1.0457838      0.0052359878 
   1980000   1980           0.96975861     0.0052359878 
   1990000   1990           1.056214       0.0052359878 
   2000000   2000           1.0283046      0.0052359878 
   2010000   2010           0.9434055      0.0052359878 
   2020000   2020           1.0689871      0.0052359878 
   2030000   2030           0.98167528     0.0052359878 
   2040000   2040           0.99724173     0.0052359878 
   2050000   2050           1.0353411      0.0052359878 
   2060000   2060           0.92419204     0.0052359878 
   2070000   2070           1.0319605      0.0052359878 
   2080000   2080           0.95501627     0.0052359878 
   2090000   2090           0.99380938     0.0052359878 
   2100000   2100           1.0619508      0.0052359878 
   2110000   2110           0.96063061     0.0052359878 
   2120000   2120           1.0083507      0.0052359878 
   2130000   2130           0.93351986     0.0052359878 
   2140000   2140           1.0307527      0.0052359878 
   2150000   2150           0.96990971     0.0052359878 
   2160000   2160           1.0303693      0.0052359878 
   2170000   2170           1.0193686      0.0052359878 
   2180000   2180           0.99780338     0.0052359878 
   2190000   2190           0.96413213     0.0052359878 
   2200000   2200           1.0372329      0.0052359878 
   2210000   2210           1.0709795      0.0052359878 
   2220000   2220           0.96340758     0.0052359878 
   2230000   2230           1.1128372      0.0052359878 
   2240000   2240           0.97858935     0.0052359878 
   2250000   2250           1.0044439      0.0052359878 
   2260000   2260           0.98599439     0.0052359878 
   2270000   2270           0.99238514     0.0052359878 
   2280000   2280           1.020417       0.0052359878 
   2290000   2290           1.0566025      0.0052359878 
   2300000   2300           0.94865455     0.0052359878 
   2310000   2310           0.93589011     0.0052359878 
   2320000   2320           0.99649433     0.0052359878 
   2330000   2330           0.97040979     0.0052359878 
   2340000   2340           0.98881072     0.0052359878 
   2350000   2350           0.97706994     0.0052359878 
   2360000   2360           1.0309479      0.0052359878 
   2370000   2370           1.0252179      0.0052359878 
   2380000   2380           1.0034715      0.0052359878 
   2390000   2390           0.93474467     0.0052359878 
   2400000   2400           1.0150448      0.0052359878 
   2410000   2410           0.9876039      0.0052359878 
   2420000   2420           0.90096887     0.0052359878 
   2430000   2430           0.9619549      0.0052359878 
   2440000   2440           1.0412374      0.0052359878 
   2450000   2450           0.97747971     0.0052359878 
   2460000   2460           1.0071499      0.0052359878 
   2470000   2470           1.00223        0.0052359878 
   2480000   2480           0.98886114     0.0052359878 
   2490000   2490           0.99501732     0.0052359878 
   2500000   2500           0.98288119     0.0052359878 
   2510000   2510           0.99663187     0.0052359878 
   2520000   2520           0.91054099     0.0052359878 
   2530000   2530           0.99992702     0.0052359878 
   2540000   2540           1.0184072      0.0052359878 
   2550000   2550           1.0593137      0.0052359878 
   2560000   2560           1.0441618      0.0052359878 
   2570000   2570           0.96931445     0.0052359878 
   2580000   2580           0.97205024     0.0052359878 
   2590000   2590           1.0116757      0.0052359878 
   2600000   2600           0.97959277     0.0052359878 
   2610000   2610           1.0554035      0.0052359878 
   2620000   2620           0.99352341     0.0052359878 
   2630000   2630           1.0213738      0.0052359878 
   2640000   2640           0.96659105     0.0052359878 
   2650000   2650           1.0183998      0.0052359878 
   2660000   2660           0.98120302     0.0052359878 
   2670000   2670           0.97227011     0.0052359878 
   2680000   2680           0.94828354     0.0052359878 
   2690000   2690           1.0235412      0.0052359878 
   2700000   2700           1.0116964      0.0052359878 
   2710000   2710           0.97400355     0.0052359878 
   2720000   2720           1.0084179      0.0052359878 
   2730000   2730           0.92789565     0.0052359878 
   2740000   2740           1.0288897      0.0052359878 
   2750000   2750           0.96331172     0.0052359878 
   2760000   2760           1.0344997      0.0052359878 
   2770000   2770           0.97763408     0.0052359878 
   2780000   2780           0.98179536     0.0052359878 
   2790000   2790           0.99264763     0.0052359878 
   2800000   2800           0.95186561     0.0052359878 
   2810000   2810           0.9531216      0.0052359878 
   2820000   2820           1.0740535      0.0052359878 
   2830000   2830           1.0365672      0.0052359878 
   2840000   2840           1.0073724      0.0052359878 
   2850000   2850           0.99136143     0.0052359878 
   2860000   2860           1.0115392      0.0052359878 
   2870000   2870           0.96680775     0.0052359878 
   2880000   2880           1.0119902      0.0052359878 
   2890000   2890           0.99876791     0.0052359878 
   2900000   2900           0.99094915     0.0052359878 
   2910000   2910           0.99975268     0.0052359878 
   2920000   2920           0.95673823     0.0052359878 
   2930000   2930           0.98187449     0.0052359878 
   2940000   2940           1.0182372      0.0052359878 
   2950000   2950           1.0429537      0.0052359878 
   2960000   2960           0.96455342     0.0052359878 
   2970000   2970           1.0451037      0.0052359878 
   2980000   2980           0.93734925     0.0052359878 
   2990000   2990           1.0292476      0.0052359878 
   3000000   3000           0.95547549     0.0052359878 
   3010000   3010           1.0033732      0.0052359878 
   3020000   3020           0.95568156     0.0052359878 
   3030000   3030           1.0226374      0.0052359878 
   3040000   3040           1.0301215      0.0052359878 
   3050000   3050           1.0041008      0.0052359878 
   3060000   3060           1.0613479      0.0052359878 
   3070000   3070           0.96031828     0.0052359878 
   3080000   3080           0.98680708     0.0052359878 
   3090000   3090           1.0060655      0.0052359878 
   3100000   3100           1.0062056      0.0052359878 
   3110000   3110           1.002233       0.0052359878 
   3120000   3120           1.0304756      0.0052359878 
   3130000   3130           0.99937396     0.0052359878 
   3140000   3140           1.089761       0.0052359878 
   3150000   3150           0.92450646     0.0052359878 
   3160000   3160           1.0415524      0.0052359878 
   3170000   3170           1.070465       0.0052359878 
   3180000   3180           0.94364634     0.0052359878 
   3190000   3190           0.99025044     0.0052359878 
   3200000   3200           0.98343619     0.0052359878 
   3210000   3210           0.96199228     0.0052359878 
   3220000   3220           0.98058832     0.0052359878 
   3230000   3230           0.97220898     0.0052359878 
   3240000   3240           1.070322       0.0052359878 
   3250000   3250           0.97068738     0.0052359878 
   3260000   3260           0.96229175     0.0052359878 
   3270000   3270           0.96828355     0.0052359878 
   3280000   3280           0.99536797     0.0052359878 
   3290000   3290           0.98872285     0.0052359878 
   3300000   3300           1.0489529      0.0052359878 
   3310000   3310           1.0598875      0.0052359878 
   3320000   3320           1.0417959      0.0052359878 
   3330000   3330           0.99533593     0.0052359878 
   3340000   3340           1.034681       0.0052359878 
   3350000   3350           0.9433143      0.0052359878 
   3360000   3360           1.0181557      0.0052359878 
   3370000   3370           0.9832608      0.0052359878 
   3380000   3380           1.0205916      0.0052359878 
   3390000   3390           1.0186103      0.0052359878 
   3400000   3400           1.0419754      0.0052359878 
   3410000   3410           0.93045066     0.0052359878 
   3420000   3420           0.93580424     0.0052359878 
   3430000   3430           1.0115612      0.0052359878 
   3440000   3440           0.94496672     0.0052359878 
   3450000   3450           0.98546588     0.0052359878 
   3460000   3460           0.9851486      0.0052359878 
   3470000   3470           1.033206       0.0052359878 
   3480000   3480           0.96240785     0.0052359878 
   3490000   3490           0.9840599      0.0052359878 
   3500000   3500           1.0227673      0.0052359878 
   3510000   3510           0.94822892     0.0052359878 
   3520000   3520           1.0072955      0.0052359878 
   3530000   3530           0.92823456     0.0052359878 
   3540000   3540           0.9438799      0.0052359878 
   3550000   3550           1.0141745      0.0052359878 
   3560000   3560           1.0450157      0.0052359878 
   3570000   3570           0.94739694     0.0052359878 
   3580000   3580           0.93211413     0.0052359878 
   3590000   3590           1.0344975      0.0052359878 
   3600000   3600           1.0254877      0.0052359878 
   3610000   3610           1.0267159      0.0052359878 
   3620000   3620           0.98061335     0.0052359878 
   3630000   3630           0.9749391      0.0052359878 
   3640000   3640           0.97196375     0.0052359878 
   3650000   3650           1.0302697      0.0052359878 
   3660000   3660           1.0360352      0.0052359878 
   3670000   3670           0.97851664     0.0052359878 
   3680000   3680           0.91301611     0.0052359878 
   3690000   3690           1.0054917      0.0052359878 
   3700000   3700           0.96162587     0.0052359878 
   3710000   3710           1.00334        0.0052359878 
   3720000   3720           0.98386273     0.0052359878 
   3730000   3730           0.98976794     0.0052359878 
   3740000   3740           1.0249537      0.0052359878 
   3750000   3750           1.0095951      0.0052359878 
   3760000   3760           1.0046187      0.0052359878 
   3770000   3770           0.99353395     0.0052359878 
   3780000   3780           0.97767531     0.0052359878 
   3790000   3790           0.97391861     0.0052359878 
   3800000   3800           1.0402576      0.0052359878 
   3810000   3810           0.96199699     0.0052359878 
   3820000   3820           1.026258       0.0052359878 
   3830000   3830           0.99081472     0.0052359878 
   3840000   3840           1.0140752      0.0052359878 
   3850000   3850           0.95852604     0.0052359878 
   3860000   3860           0.90781222     0.0052359878 
   3870000   3870           0.99365433     0.0052359878 
   3880000   3880           1.0399915      0.0052359878 
   3890000   3890           1.025543       0.0052359878 
   3900000   3900           0.97971882     0.0052359878 
   3910000   3910           1.0829706      0.0052359878 
   3920000   3920           0.98397278     0.0052359878 
   3930000   3930           0.99521858     0.0052359878 
   3940000   3940           1.0101201      0.0052359878 
   3950000   3950           1.0035938      0.0052359878 
   3960000   3960           1.0465345      0.0052359878 
   3970000   3970           1.0375027      0.0052359878 
   3980000   3980           0.97765399     0.0052359878 
   3990000   3990           0.99020959     0.0052359878 
   4000000   4000           0.93386147     0.0052359878 
   4010000   4010           1.0221202      0.0052359878 
   4020000   4020           0.99372052     0.0052359878 
   4030000   4030           0.97854352     0.0052359878 
   4040000   4040           0.94379813     0.0052359878 
   4050000   4050           1.0689208      0.0052359878 
   4060000   4060           1.0302646      0.0052359878 
   4070000   4070           1.0356292      0.0052359878 
   4080000   4080           0.96125023     0.0052359878 
   4090000   4090           1.0714961      0.0052359878 
   4100000   4100           0.99242324     0.0052359878 
   4110000   4110           0.99980282     0.0052359878 
   4120000   4120           0.96757571     0.0052359878 
   4130000   4130           1.0175678      0.0052359878 
   4140000   4140           0.9922943      0.0052359878 
   4150000   4150           0.98022182     0.0052359878 
   4160000   4160           1.0135918      0.0052359878 
   4170000   4170           0.97098414     0.0052359878 
   4180000   4180           0.96969712     0.0052359878 
   4190000   4190           0.99501517     0.0052359878 
   4200000   4200           1.0128934      0.0052359878 
   4210000   4210           0.91516944     0.0052359878 
   4220000   4220           0.97515985     0.0052359878 
   4230000   4230           0.99166229     0.0052359878 
   4240000   4240           0.96380722     0.0052359878 
   4250000   4250           0.9460619      0.0052359878 
   4260000   4260           1.0013526      0.0052359878 
   4270000   4270           1.0414046      0.0052359878 
   4280000   4280           1.0643414      0.0052359878 
   4290000   4290           0.97792379     0.0052359878 
   4300000   4300           0.98006358     0.0052359878 
   4310000   4310           1.0109275      0.0052359878 
   4320000   4320           1.0171046      0.0052359878 
   4330000   4330           1.0720601      0.0052359878 
   4340000   4340           0.99339105     0.0052359878 
   4350000   4350           1.0066076      0.0052359878 
   4360000   4360           1.0659136      0.0052359878 
   4370000   4370           1.0031265      0.0052359878 
   4380000   4380           0.97692316     0.0052359878 
   4390000   4390           0.94971841     0.0052359878 
   4400000   4400           0.99738898     0.0052359878 
   4410000   4410           0.97297694     0.0052359878 
   4420000   4420           1.0193328      0.0052359878 
   4430000   4430           1.0271007      0.0052359878 
   4440000   4440           1.0359303      0.0052359878 
   4450000   4450           0.95077616     0.0052359878 
   4460000   4460           0.95349317     0.0052359878 
   4470000   4470           0.99458491     0.0052359878 
   4480000   4480           1.057198       0.0052359878 
   4490000   4490           0.99405289     0.0052359878 
   4500000   4500           0.98817856     0.0052359878 
   4510000   4510           1.0268783      0.0052359878 
   4520000   4520           1.0251291      0.0052359878 
   4530000   4530           1.0261998      0.0052359878 
   4540000   4540           1.0188124      0.0052359878 
   4550000   4550           0.9989697      0.0052359878 
   4560000   4560           1.0658452      0.0052359878 
   4570000   4570           1.0419053      0.0052359878 
   4580000   4580           0.9626322      0.0052359878 
   4590000   4590           1.0002234      0.0052359878 
   4600000   4600           1.0581434      0.0052359878 
   4610000   4610           1.0025318      0.0052359878 
   4620000   4620           0.9943315      0.0052359878 
   4630000   4630           1.0235008      0.0052359878 
   4640000   4640           1.0292797      0.0052359878 
   4650000   4650           0.97642965     0.0052359878 
   4660000   4660           1.0900335      0.0052359878 
   4670000   4670           1.1164192      0.0052359878 
   4680000   4680           0.9646341      0.0052359878 
   4690000   4690           0.96627898     0.0052359878 
   4700000   4700           0.97684273     0.0052359878 
   4710000   4710           0.99574163     0.0052359878 
   4720000   4720           1.0768416      0.0052359878 
   4730000   4730           1.0062893      0.0052359878 
   4740000   4740           0.98494946     0.0052359878 
   4750000   4750           1.0000952      0.0052359878 
   4760000   4760           1.0619602      0.0052359878 
   4770000   4770           1.039451       0.0052359878 
   4780000   4780           1.0364568      0.0052359878 
   4790000   4790           0.9769123      0.0052359878 
   4800000   4800           0.95238666     0.0052359878 
   4810000   4810           0.99618625     0.0052359878 
   4820000   4820           0.95534672     0.0052359878 
   4830000   4830           1.0120117      0.0052359878 
   4840000   4840           1.0344747      0.0052359878 
   4850000   4850           0.99422689     0.0052359878 
   4860000   4860           0.92321073     0.0052359878 
   4870000   4870           1.0377405      0.0052359878 
   4880000   4880           0.98388242     0.0052359878 
   4890000   4890           0.94404345     0.0052359878 
   4900000   4900           0.96846177     0.0052359878 
   4910000   4910           0.98007441     0.0052359878 
   4920000   4920           0.99567506     0.0052359878 
   4930000   4930           0.95279182     0.0052359878 
   4940000   4940           1.0008906      0.0052359878 
   4950000   4950           1.0930782      0.0052359878 
   4960000   4960           0.94673927     0.0052359878 
   4970000   4970           0.90869652     0.0052359878 
   4980000   4980           1.0011362      0.0052359878 
   4990000   4990           0.95379808     0.0052359878 
   5000000   5000           0.98623092     0.0052359878 
   5010000   5010           0.96995802     0.0052359878 
   5020000   5020           0.97297385     0.0052359878 
   5030000   5030           1.0680032      0.0052359878 
   5040000   5040           1.0146174      0.0052359878 
   5050000   5050           0.99189811     0.0052359878 
   5060000   5060           1.0560935      0.0052359878 
   5070000   5070           0.97311666     0.0052359878 
   5080000   5080           1.0041136      0.0052359878 
   5090000   5090           0.98651485     0.0052359878 
   5100000   5100           0.96906219     0.0052359878 
   5110000   5110           1.0308828      0.0052359878 
   5120000   5120           0.96021508     0.0052359878 
   5130000   5130           1.0045797      0.0052359878 
   5140000   5140           0.97090918     0.0052359878 
   5150000   5150           1.081196       0.0052359878 
   5160000   5160           1.0097614      0.0052359878 
   5170000   5170           0.95107026     0.0052359878 
   5180000   5180           0.99594305     0.0052359878 
   5190000   5190           1.00346        0.0052359878 
   5200000   5200           0.96426763     0.0052359878 
   5210000   5210           0.99310496     0.0052359878 
   5220000   5220           1.0481377      0.0052359878 
   5230000   5230           0.99474454     0.0052359878 
   5240000   5240           1.026762       0.0052359878 
   5250000   5250           1.0107538      0.0052359878 
   5260000   5260           1.0490789      0.0052359878 
   5270000   5270           0.99881966     0.0052359878 
   5280000   5280           0.97526548     0.0052359878 
   5290000   5290           0.99970583     0.0052359878 
   5300000   5300           0.98643506     0.0052359878 
   5310000   5310           1.0297011      0.0052359878 
   5320000   5320           1.0208372      0.0052359878 
   5330000   5330           0.98558724     0.0052359878 
   5340000   5340           0.99804024     0.0052359878 
   5350000   5350           0.97311679     0.0052359878 
   5360000   5360           1.0132032      0.0052359878 
   5370000   5370           1.0029054      0.0052359878 
   5380000   5380           0.96187514     0.0052359878 
   5390000   5390           1.0444392      0.0052359878 
   5400000   5400           1.1245731      0.0052359878 
   5410000   5410           0.9777197      0.0052359878 
   5420000   5420           0.94728275     0.0052359878 
   5430000   5430           1.0184262      0.0052359878 
   5440000   5440           1.0754995      0.0052359878 
   5450000   5450           0.99088518     0.0052359878 
   5460000   5460           1.0395641      0.0052359878 
   5470000   5470           1.0462804      0.0052359878 
   5480000   5480           1.0514759      0.0052359878 
   5490000   5490           1.0455576      0.0052359878 
   5500000   5500           1.0297057      0.0052359878 
   5510000   5510           1.0082678      0.0052359878 
   5520000   5520           1.0125268      0.0052359878 
   5530000   5530           0.99191293     0.0052359878 
   5540000   5540           0.93132789     0.0052359878 
   5550000   5550           1.1011092      0.0052359878 
   5560000   5560           0.96496355     0.0052359878 
   5570000   5570           1.0775831      0.0052359878 
   5580000   5580           0.96278237     0.0052359878 
   5590000   5590           1.0371736      0.0052359878 
   5600000   5600           0.99174722     0.0052359878 
   5610000   5610           0.99174233     0.0052359878 
   5620000   5620           0.95081633     0.0052359878 
   5630000   5630           0.9678557      0.0052359878 
   5640000   5640           0.95550283     0.0052359878 
   5650000   5650           1.0732597      0.0052359878 
   5660000   5660           1.0098551      0.0052359878 
   5670000   5670           0.98667377     0.0052359878 
   5680000   5680           1.0084052      0.0052359878 
   5690000   5690           1.0076067      0.0052359878 
   5700000   5700           0.99856195     0.0052359878 
   5710000   5710           1.0105172      0.0052359878 
   5720000   5720           1.0159938      0.0052359878 
   5730000   5730           1.0510407      0.0052359878 
   5740000   5740           1.0206         0.0052359878 
   5750000   5750           1.0827974      0.0052359878 
   5760000   5760           0.93125851     0.0052359878 
   5770000   5770           1.0669489      0.0052359878 
   5780000   5780           0.9350609      0.0052359878 
   5790000   5790           0.99855006     0.0052359878 
   5800000   5800           1.0295118      0.0052359878 
   5810000   5810           1.0193147      0.0052359878 
   5820000   5820           0.94356641     0.0052359878 
   5830000   5830           1.003214       0.0052359878 
   5840000   5840           1.0211017      0.0052359878 
   5850000   5850           0.95826371     0.0052359878 
   5860000   5860           0.94211873     0.0052359878 
   5870000   5870           1.0259655      0.0052359878 
   5880000   5880           0.99837122     0.0052359878 
   5890000   5890           0.98755254     0.0052359878 
   5900000   5900           1.092041       0.0052359878 
   5910000   5910           1.0239172      0.0052359878 
   5920000   5920           1.01526        0.0052359878 
   5930000   5930           1.0021167      0.0052359878 
   5940000   5940           1.0568422      0.0052359878 
   5950000   5950           0.99307848     0.0052359878 
   5960000   5960           0.93092967     0.0052359878 
   5970000   5970           0.94935964     0.0052359878 
   5980000   5980           1.0255198      0.0052359878 
   5990000   5990           1.0352026      0.0052359878 
   6000000   6000           1.0742448      0.0052359878 
   6010000   6010           0.9633153      0.0052359878 
   6020000   6020           0.97358857     0.0052359878 
   6030000   6030           0.96722697     0.0052359878 
   6040000   6040           0.97227372     0.0052359878 
   6050000   6050           0.94004111     0.0052359878 
   6060000   6060           1.0210633      0.0052359878 
   6070000   6070           1.0172724      0.0052359878 
   6080000   6080           0.99278956     0.0052359878 
   6090000   6090           0.94525223     0.0052359878 
   6100000   6100           1.0763824      0.0052359878 
   6110000   6110           1.0176683      0.0052359878 
   6120000   6120           0.96643795     0.0052359878 
   6130000   6130           0.95620951     0.0052359878 
   6140000   6140           0.90098926     0.0052359878 
   6150000   6150           1.0098188      0.0052359878 
   6160000   6160           1.0366185      0.0052359878 
   6170000   6170           0.94358599     0.0052359878 
   6180000   6180           0.95839582     0.0052359878 
   6190000   6190           1.0472141      0.0052359878 
   6200000   6200           1.0815295      0.0052359878 
   6210000   6210           0.92603635     0.0052359878 
   6220000   6220           1.0359536      0.0052359878 
   6230000   6230           1.0140996      0.0052359878 
   6240000   6240           0.97939243     0.0052359878 
   6250000   6250           1.057313       0.0052359878 
   6260000   6260           0.98038536     0.0052359878 
   6270000   6270           0.959966       0.0052359878 
   6280000   6280           1.0024043      0.0052359878 
   6290000   6290           1.0078193      0.0052359878 
   6300000   6300           1.0620575      0.0052359878 
   6310000   6310           0.97795252     0.0052359878 
   6320000   6320           1.0330089      0.0052359878 
   6330000   6330           0.99965865     0.0052359878 
   6340000   6340           1.0311499      0.0052359878 
   6350000   6350           0.97853495     0.0052359878 
   6360000   6360           0.985479       0.0052359878 
   6370000   6370           0.9482999      0.0052359878 
   6380000   6380           1.0996858      0.0052359878 
   6390000   6390           0.97971415     0.0052359878 
   6400000   6400           0.93158396     0.0052359878 
   6410000   6410           1.0135423      0.0052359878 
   6420000   6420           0.98137181     0.0052359878 
   6430000   6430           1.0896118      0.0052359878 
   6440000   6440           0.98561306     0.0052359878 
   6450000   6450           0.98208401     0.0052359878 
   6460000   6460           1.0036637      0.0052359878 
   6470000   6470           0.99117875     0.0052359878 
   6480000   6480           1.0319106      0.0052359878 
   6490000   6490           0.94320324     0.0052359878 
   6500000   6500           1.0228305      0.0052359878 
   6510000   6510           0.99155845     0.0052359878 
   6520000   6520           1.0052378      0.0052359878 
   6530000   6530           0.97934019     0.0052359878 
   6540000   6540           1.0049286      0.0052359878 
   6550000   6550           0.96338323     0.0052359878 
   6560000   6560           0.93584847     0.0052359878 
   6570000   6570           1.0294099      0.0052359878 
   6580000   6580           1.0363168      0.0052359878 
   6590000   6590           0.95072878     0.0052359878 
   6600000   6600           1.0156351      0.0052359878 
   6610000   6610           0.98111035     0.0052359878 
   6620000   6620           0.9542908      0.0052359878 
   6630000   6630           0.99136562     0.0052359878 
   6640000   6640           0.90940108     0.0052359878 
   6650000   6650           1.047917       0.0052359878 
   6660000   6660           0.97303313     0.0052359878 
   6670000   6670           0.98008902     0.0052359878 
   6680000   6680           0.99936135     0.0052359878 
   6690000   6690           1.0099654      0.0052359878 
   6700000   6700           0.94941258     0.0052359878 
   6710000   6710           0.97243328     0.0052359878 
   6720000   6720           0.95090338     0.0052359878 
   6730000   6730           1.0966107      0.0052359878 
   6740000   6740           1.003854       0.0052359878 
   6750000   6750           0.98659164     0.0052359878 
   6760000   6760           0.97713341     0.0052359878 
   6770000   6770           0.9280728      0.0052359878 
   6780000   6780           0.99258473     0.0052359878 
   6790000   6790           0.99406458     0.0052359878 
   6800000   6800           1.0501137      0.0052359878 
   6810000   6810           0.99088889     0.0052359878 
   6820000   6820           0.9744895      0.0052359878 
   6830000   6830           1.0362897      0.0052359878 
   6840000   6840           0.99788005     0.0052359878 
   6850000   6850           0.96961612     0.0052359878 
   6860000   6860           0.99582985     0.0052359878 
   6870000   6870           0.98105465     0.0052359878 
   6880000   6880           0.94779808     0.0052359878 
   6890000   6890           0.96794828     0.0052359878 
   6900000   6900           1.00034        0.0052359878 
   6910000   6910           1.0197983      0.0052359878 
   6920000   6920           1.0687395      0.0052359878 
   6930000   6930           0.94377813     0.0052359878 
   6940000   6940           1.0697874      0.0052359878 
   6950000   6950           0.91933266     0.0052359878 
   6960000   6960           1.0209331      0.0052359878 
   6970000   6970           1.0176501      0.0052359878 
   6980000   6980           1.016518       0.0052359878 
   6990000   6990           1.0288278      0.0052359878 
   7000000   7000           1.016601       0.0052359878 
   7010000   7010           0.9945659      0.0052359878 
   7020000   7020           0.97821798     0.0052359878 
   7030000   7030           0.98376674     0.0052359878 
   7040000   7040           0.95735307     0.0052359878 
   7050000   7050           0.96381108     0.0052359878 
   7060000   7060           0.96760528     0.0052359878 
   7070000   7070           0.97341375     0.0052359878 
   7080000   7080           0.93713221     0.0052359878 
   7090000   7090           0.9545797      0.0052359878 
   7100000   7100           1.0447418      0.0052359878 
   7110000   7110           1.0902935      0.0052359878 
   7120000   7120           1.0541268      0.0052359878 
   7130000   7130           0.94494993     0.0052359878 
   7140000   7140           1.0110098      0.0052359878 
   7150000   7150           1.0094805      0.0052359878 
   7160000   7160           0.9675354      0.0052359878 
   7170000   7170           1.0054525      0.0052359878 
   7180000   7180           1.0778735      0.0052359878 
   7190000   7190           0.96504016     0.0052359878 
   7200000   7200           0.9485601      0.0052359878 
   7210000   7210           1.0632115      0.0052359878 
   7220000   7220           1.0363012      0.0052359878 
   7230000   7230           1.0923394      0.0052359878 
   7240000   7240           1.0050085      0.0052359878 
   7250000   7250           0.94914743     0.0052359878 
   7260000   7260           1.0126746      0.0052359878 
   7270000   7270           1.0189916      0.0052359878 
   7280000   7280           1.0186004      0.0052359878 
   7290000   7290           1.0027056      0.0052359878 
   7300000   7300           1.031689       0.0052359878 
   7310000   7310           0.97168997     0.0052359878 
   7320000   7320           1.046512       0.0052359878 
   7330000   7330           0.9302892      0.0052359878 
   7340000   7340           1.0457098      0.0052359878 
   7350000   7350           1.05415        0.0052359878 
   7360000   7360           1.0319372      0.0052359878 
   7370000   7370           0.94335301     0.0052359878 
   7380000   7380           1.0292631      0.0052359878 
   7390000   7390           0.97563323     0.0052359878 
   7400000   7400           0.9961155      0.0052359878 
   7410000   7410           1.0184871      0.0052359878 
   7420000   7420           1.0534318      0.0052359878 
   7430000   7430           0.96296647     0.0052359878 
   7440000   7440           1.0185958      0.0052359878 
   7450000   7450           1.0217106      0.0052359878 
   7460000   7460           1.0843286      0.0052359878 
   7470000   7470           1.04356        0.0052359878 
   7480000   7480           1.0549421      0.0052359878 
   7490000   7490           0.99653606     0.0052359878 
   7500000   7500           0.97626067     0.0052359878 
   7510000   7510           1.0101573      0.0052359878 
   7520000   7520           0.98450947     0.0052359878 
   7530000   7530           0.94982707     0.0052359878 
   7540000   7540           0.97473727     0.0052359878 
   7550000   7550           0.96018966     0.0052359878 
   7560000   7560           1.0111723      0.0052359878 
   7570000   7570           1.0793096      0.0052359878 
   7580000   7580           0.9626802      0.0052359878 
   7590000   7590           0.95084373     0.0052359878 
   7600000   7600           1.0195977      0.0052359878 
   7610000   7610           1.0517457      0.0052359878 
   7620000   7620           1.0489392      0.0052359878 
   7630000   7630           0.98362364     0.0052359878 
   7640000   7640           0.93457295     0.0052359878 
   7650000   7650           0.97625729     0.0052359878 
   7660000   7660           1.0303863      0.0052359878 
   7670000   7670           0.99600759     0.0052359878 
   7680000   7680           1.0126947      0.0052359878 
   7690000   7690           1.0442997      0.0052359878 
   7700000   7700           1.0287655      0.0052359878 
   7710000   7710           0.97357152     0.0052359878 
   7720000   7720           1.0397512      0.0052359878 
   7730000   7730           1.0065073      0.0052359878 
   7740000   7740           0.99191679     0.0052359878 
   7750000   7750           1.0048474      0.0052359878 
   7760000   7760           1.0090096      0.0052359878 
   7770000   7770           0.9700321      0.0052359878 
   7780000   7780           1.035538       0.0052359878 
   7790000   7790           1.0369054      0.0052359878 
   7800000   7800           0.93077163     0.0052359878 
   7810000   7810           0.98946115     0.0052359878 
   7820000   7820           1.0310405      0.0052359878 
   7830000   7830           0.9929795      0.0052359878 
   7840000   7840           1.0168383      0.0052359878 
   7850000   7850           1.0692724      0.0052359878 
   7860000   7860           0.9684708      0.0052359878 
   7870000   7870           0.9945146      0.0052359878 
   7880000   7880           1.041495       0.0052359878 
   7890000   7890           1.0551598      0.0052359878 
   7900000   7900           0.97180525     0.0052359878 
   7910000   7910           1.086061       0.0052359878 
   7920000   7920           0.92968685     0.0052359878 
   7930000   7930           1.0024542      0.0052359878 
   7940000   7940           1.0195631      0.0052359878 
   7950000   7950           0.99421259     0.0052359878 
   7960000   7960           1.04275        0.0052359878 
   7970000   7970           0.99695657     0.0052359878 
   7980000   7980           1.0023524      0.0052359878 
   7990000   7990           0.98393025     0.0052359878 
   8000000   8000           1.000292       0.0052359878 
   8010000   8010           1.0506967      0.0052359878 
   8020000   8020           1.0113461      0.0052359878 
   8030000   8030           0.96991665     0.0052359878 
   8040000   8040           1.0369644      0.0052359878 
   8050000   8050           1.0263783      0.0052359878 
   8060000   8060           0.97984697     0.0052359878 
   8070000   8070           0.97747025     0.0052359878 
   8080000   8080           0.97945462     0.0052359878 
   8090000   8090           0.97331395     0.0052359878 
   8100000   8100           0.98023737     0.0052359878 
   8110000   8110           1.0434526      0.0052359878 
   8120000   8120           0.98717098     0.0052359878 
   8130000   8130           0.95934587     0.0052359878 
   8140000   8140           0.99495416     0.0052359878 
   8150000   8150           0.9811525      0.0052359878 
   8160000   8160           0.96164986     0.0052359878 
   8170000   8170           1.071609       0.0052359878 
   8180000   8180           0.9968988      0.0052359878 
   8190000   8190           1.0336598      0.0052359878 
   8200000   8200           1.0242994      0.0052359878 
   8210000   8210           1.0153613      0.0052359878 
   8220000   8220           1.0192978      0.0052359878 
   8230000   8230           0.980847       0.0052359878 
   8240000   8240           1.0395547      0.0052359878 
   8250000   8250           1.004525       0.0052359878 
   8260000   8260           0.96047432     0.0052359878 
   8270000   8270           1.0550462      0.0052359878 
   8280000   8280           1.041958       0.0052359878 
   8290000   8290           1.0189459      0.0052359878 
   8300000   8300           1.0090024      0.0052359878 
   8310000   8310           0.95633499     0.0052359878 
   8320000   8320           1.0116841      0.0052359878 
   8330000   8330           1.0005734      0.0052359878 
   8340000   8340           1.0101111      0.0052359878 
   8350000   8350           0.99939684     0.0052359878 
   8360000   8360           0.99169373     0.0052359878 
   8370000   8370           1.0093374      0.0052359878 
   8380000   8380           1.03073        0.0052359878 
   8390000   8390           1.0218095      0.0052359878 
   8400000   8400           1.0273081      0.0052359878 
   8410000   8410           1.037971       0.0052359878 
   8420000   8420           1.0095169      0.0052359878 
   8430000   8430           1.0008062      0.0052359878 
   8440000   8440           1.0312109      0.0052359878 
   8450000   8450           1.0193356      0.0052359878 
   8460000   8460           0.9844299      0.0052359878 
   8470000   8470           0.97585171     0.0052359878 
   8480000   8480           0.94192718     0.0052359878 
   8490000   8490           0.99137672     0.0052359878 
   8500000   8500           1.0460251      0.0052359878 
   8510000   8510           0.99773653     0.0052359878 
   8520000   8520           1.0282192      0.0052359878 
   8530000   8530           0.95662533     0.0052359878 
   8540000   8540           0.97843402     0.0052359878 
   8550000   8550           0.9814929      0.0052359878 
   8560000   8560           0.98091627     0.0052359878 
   8570000   8570           0.95631549     0.0052359878 
   8580000   8580           0.97172041     0.0052359878 
   8590000   8590           1.0538352      0.0052359878 
   8600000   8600           1.0347745      0.0052359878 
   8610000   8610           0.95642161     0.0052359878 
   8620000   8620           1.0075827      0.0052359878 
   8630000   8630           1.0110864      0.0052359878 
   8640000   8640           1.0033435      0.0052359878 
   8650000   8650           0.98076984     0.0052359878 
   8660000   8660           1.1027906      0.0052359878 
   8670000   8670           0.99676316     0.0052359878 
   8680000   8680           0.95736469     0.0052359878 
   8690000   8690           1.0685327      0.0052359878 
   8700000   8700           0.96681762     0.0052359878 
   8710000   8710           1.0121996      0.0052359878 
   8720000   8720           1.0328707      0.0052359878 
   8730000   8730           1.0255115      0.0052359878 
   8740000   8740           0.99679767     0.0052359878 
   8750000   8750           0.95768386     0.0052359878 
   8760000   8760           1.0050817      0.0052359878 
   8770000   8770           0.99842024     0.0052359878 
   8780000   8780           1.0219283      0.0052359878 
   8790000   8790           1.0314883      0.0052359878 
   8800000   8800           1.037027       0.0052359878 
   8810000   8810           0.98480781     0.0052359878 
   8820000   8820           1.0437035      0.0052359878 
   8830000   8830           0.97754207     0.0052359878 
   8840000   8840           1.0200668      0.0052359878 
   8850000   8850           0.99453848     0.0052359878 
   8860000   8860           1.0603248      0.0052359878 
   8870000   8870           1.0159332      0.0052359878 
   8880000   8880           1.0154385      0.0052359878 
   8890000   8890           1.0129695      0.0052359878 
   8900000   8900           1.0065847      0.0052359878 
   8910000   8910           1.0231499      0.0052359878 
   8920000   8920           0.99209629     0.0052359878 
   8930000   8930           1.0455578      0.0052359878 
   8940000   8940           1.037356       0.0052359878 
   8950000   8950           1.0462742      0.0052359878 
   8960000   8960           0.93221006     0.0052359878 
   8970000   8970           0.97915384     0.0052359878 
   8980000   8980           0.96311662     0.0052359878 
   8990000   8990           0.9795461      0.0052359878 
   9000000   9000           0.96959553     0.0052359878 
   9010000   9010           1.0195901      0.0052359878 
   9020000   9020           0.98979237     0.0052359878 
   9030000   9030           1.0209447      0.0052359878 
   9040000   9040           1.0088822      0.0052359878 
   9050000   9050           0.99622176     0.0052359878 
   9060000   9060           0.95586971     0.0052359878 
   9070000   9070           0.97883977     0.0052359878 
   9080000   9080           0.96622327     0.0052359878 
   9090000   9090           1.0805737      0.0052359878 
   9100000   9100           0.97860679     0.0052359878 
   9110000   9110           1.0251391      0.0052359878 
   9120000   9120           0.9721034      0.0052359878 
   9130000   9130           0.98678923     0.0052359878 
   9140000   9140           1.0145386      0.0052359878 
   9150000   9150           1.0367238      0.0052359878 
   9160000   9160           0.971075       0.0052359878 
   9170000   9170           1.0906138      0.0052359878 
   9180000   9180           1.0297901      0.0052359878 
   9190000   9190           1.043914       0.0052359878 
   9200000   9200           1.0081945      0.0052359878 
   9210000   9210           1.0467793      0.0052359878 
   9220000   9220           1.0266362      0.0052359878 
   9230000   9230           0.9295344      0.0052359878 
   9240000   9240           1.0423091      0.0052359878 
   9250000   9250           1.0391066      0.0052359878 
   9260000   9260           0.98173761     0.0052359878 
   9270000   9270           0.95173434     0.0052359878 
   9280000   9280           1.0555273      0.0052359878 
   9290000   9290           0.95128301     0.0052359878 
   9300000   9300           1.0246503      0.0052359878 
   9310000   9310           1.0518502      0.0052359878 
   9320000   9320           1.0030097      0.0052359878 
   9330000   9330           1.0324478      0.0052359878 
   9340000   9340           0.97115552     0.0052359878 
   9350000   9350           0.96990312     0.0052359878 
   9360000   9360           1.0310818      0.0052359878 
   9370000   9370           1.0079166      0.0052359878 
   9380000   9380           1.0101696      0.0052359878 
   9390000   9390           0.93551213     0.0052359878 
   9400000   9400           0.93318321     0.0052359878 
   9410000   9410           1.0474716      0.0052359878 
   9420000   9420           1.0306561      0.0052359878 
   9430000   9430           0.9328604      0.0052359878 
   9440000   9440           1.0411426      0.0052359878 
   9450000   9450           0.98186439     0.0052359878 
   9460000   9460           1.0118784      0.0052359878 
   9470000   9470           0.9705088      0.0052359878 
   9480000   9480           0.99135038     0.0052359878 
   9490000   9490           1.0557975      0.0052359878 
   9500000   9500           1.0198026      0.0052359878 
   9510000   9510           1.0145847      0.0052359878 
   9520000   9520           1.0037593      0.0052359878 
   9530000   9530           0.92865521     0.0052359878 
   9540000   9540           0.96083376     0.0052359878 
   9550000   9550           0.98840484     0.0052359878 
   9560000   9560           1.0063379      0.0052359878 
   9570000   9570           1.0162794      0.0052359878 
   9580000   9580           0.99501516     0.0052359878 
   9590000   9590           0.97435675     0.0052359878 
   9600000   9600           0.95231224     0.0052359878 
   9610000   9610           0.93281153     0.0052359878 
   9620000   9620           0.99105902     0.0052359878 
   9630000   9630           0.99011576     0.0052359878 
   9640000   9640           1.0017106      0.0052359878 
   9650000   9650           1.0460392      0.0052359878 
   9660000   9660           1.0667001      0.0052359878 
   9670000   9670           1.0422298      0.0052359878 
   9680000   9680           1.0129748      0.0052359878 
   9690000   9690           1.0301327      0.0052359878 
   9700000   9700           0.98949272     0.0052359878 
   9710000   9710           1.0187326      0.0052359878 
   9720000   9720           1.0049939      0.0052359878 
   9730000   9730           1.0298932      0.0052359878 
   9740000   9740           0.94312159     0.0052359878 
   9750000   9750           1.0183423      0.0052359878 
   9760000   9760           1.0042409      0.0052359878 
   9770000   9770           0.99283109     0.0052359878 
   9780000   9780           1.0382992      0.0052359878 
   9790000   9790           1.015655       0.0052359878 
   9800000   9800           1.0408082      0.0052359878 
   9810000   9810           1.0473049      0.0052359878 
   9820000   9820           0.91763762     0.0052359878 
   9830000   9830           0.97105986     0.0052359878 
   9840000   9840           1.0465436      0.0052359878 
   9850000   9850           0.93024676     0.0052359878 
   9860000   9860           1.0481204      0.0052359878 
   9870000   9870           1.000982       0.0052359878 
   9880000   9880           1.0536952      0.0052359878 
   9890000   9890           1.0045285      0.0052359878 
   9900000   9900           1.0492591      0.0052359878 
   9910000   9910           1.0078576      0.0052359878 
   9920000   9920           0.99356785     0.0052359878 
   9930000   9930           1.0160068      0.0052359878 
   9940000   9940           0.97558766     0.0052359878 
   9950000   9950           0.95522598     0.0052359878 
   9960000   9960           1.0662106      0.0052359878 
   9970000   9970           1.0696771      0.0052359878 
   9980000   9980           0.99974444     0.0052359878 
   9990000   9990           0.99597748     0.0052359878 
  10000000   10000          0.97851395     0.0052359878 
Loop time of 335.02 on 8 procs for 10000000 steps with 1000 atoms

Performance: 2578950.068 tau/day, 29848.959 timesteps/s, 29.849 Matom-step/s
98.4% CPU use with 8 MPI tasks x no OpenMP threads

MPI task timing breakdown:
Section |  min time  |  avg time  |  max time  |%varavg| %total
---------------------------------------------------------------
Pair    | 18.888     | 41.335     | 54.318     | 161.3 | 12.34
Neigh   | 8.4405     | 14.206     | 21.178     |  93.1 |  4.24
Comm    | 195.17     | 212.3      | 237.3      |  85.0 | 63.37
Output  | 1.6326     | 1.8038     | 1.9547     |   7.3 |  0.54
Modify  | 34.005     | 41.127     | 44.942     |  56.4 | 12.28
Other   |            | 24.25      |            |       |  7.24

Nlocal:            125 ave         203 max          23 min
Histogram: 1 0 0 3 0 0 1 0 1 2
Nghost:        151.875 ave         220 max          83 min
Histogram: 1 1 0 3 0 0 0 0 0 3
Neighs:            901 ave        1685 max          59 min
Histogram: 1 0 3 0 0 1 0 0 1 2

Total # of neighbors = 7208
Ave neighs/atom = 7.208
Neighbor list builds = 600576
Dangerous builds = 0
Total wall time: 0:05:35
